# Fourfold Voronoi map: seed 817, fingerprint b9bfe747
2048 5953
0 1
0 64
1 2
1 65
1 64
2 3
2 66
2 65
3 66
3 4
3 67
4 5
4 69
4 68
4 67
5 6
5 69
6 7
6 71
6 70
6 69
7 8
7 71
8 9
8 72
8 71
9 10
9 73
9 72
10 11
10 74
10 73
11 12
11 76
11 75
11 74
12 76
12 13
12 77
13 14
13 78
13 77
14 15
14 79
14 78
15 16
15 79
16 79
16 17
16 80
17 18
17 82
17 81
17 80
18 19
18 82
19 20
19 83
19 82
20 21
20 85
20 84
20 83
21 22
21 85
22 23
22 87
22 86
22 85
23 24
23 87
24 25
24 88
24 87
25 26
25 90
25 89
25 88
26 27
26 91
26 90
27 28
27 92
27 91
28 92
28 29
28 93
29 30
29 94
29 93
30 31
30 95
30 94
31 32
31 95
32 97
32 96
32 95
32 33
33 34
33 98
33 97
34 35
34 98
35 36
35 100
35 99
35 98
36 37
36 100
37 38
37 102
37 101
37 100
38 39
38 102
39 40
39 104
39 103
39 102
40 41
40 104
41 42
41 106
41 105
41 104
42 43
42 107
42 106
43 44
43 107
44 45
44 109
44 108
44 107
45 46
45 110
45 109
46 47
46 111
46 110
47 48
47 111
48 49
48 112
48 111
49 50
49 114
49 113
49 112
50 51
50 115
50 114
51 52
51 115
52 53
52 117
52 116
52 115
53 54
53 117
54 55
54 119
54 118
54 117
55 56
55 119
56 57
56 121
56 120
56 119
57 58
57 121
58 59
58 123
58 122
58 121
59 60
59 123
60 61
60 124
60 123
61 126
61 125
61 124
61 62
62 126
62 63
62 127
63 127
64 129
64 128
64 65
65 66
65 129
66 130
66 129
66 67
66 131
67 68
67 132
67 131
68 69
68 132
69 70
69 133
69 132
70 133
70 71
70 135
70 134
71 135
71 72
71 136
72 73
72 136
73 137
73 136
73 74
74 138
74 137
74 75
74 139
75 76
75 140
75 139
76 77
76 141
76 140
77 78
77 141
78 79
78 142
78 141
79 80
79 143
79 142
80 143
80 81
80 144
81 82
81 145
81 144
82 146
82 145
82 83
83 147
83 146
83 84
83 148
84 85
84 149
84 148
85 86
85 149
86 87
86 151
86 150
86 149
87 151
87 88
87 152
88 153
88 152
88 89
89 90
89 154
89 153
90 91
90 154
91 155
91 154
91 92
91 156
92 93
92 156
93 156
93 94
93 157
94 157
94 95
94 158
95 159
95 158
95 96
96 97
96 160
96 159
97 98
97 161
97 160
98 99
98 163
98 162
98 161
99 100
99 164
99 163
100 101
100 164
101 102
101 165
101 164
102 166
102 165
102 103
103 104
103 168
103 167
103 166
104 105
104 168
105 106
105 169
105 168
106 107
106 170
106 169
107 171
107 170
107 108
108 109
108 172
108 171
109 173
109 172
109 110
109 174
110 111
110 174
111 175
111 174
111 112
112 175
112 113
112 176
113 114
113 178
113 177
113 176
114 115
114 178
115 116
115 179
115 178
116 179
116 117
116 181
116 180
117 118
117 181
118 181
118 119
118 183
118 182
119 120
119 183
120 183
120 121
120 185
120 184
121 122
121 185
122 123
122 186
122 185
123 187
123 186
123 124
124 188
124 187
124 125
125 188
125 126
125 190
125 189
126 191
126 190
126 127
127 191
128 129
128 192
129 130
129 193
129 192
130 131
130 195
130 194
130 193
131 132
131 195
132 133
132 196
132 195
133 134
133 197
133 196
134 135
134 199
134 198
134 197
135 136
135 200
135 199
136 137
136 200
137 138
137 201
137 200
138 139
138 202
138 201
139 140
139 204
139 203
139 202
140 141
140 204
141 142
141 205
141 204
142 143
142 206
142 205
143 144
143 208
143 207
143 206
144 145
144 208
145 209
145 208
145 146
146 210
146 209
146 147
147 148
147 211
147 210
148 212
148 211
148 149
149 150
149 214
149 213
149 212
150 151
150 215
150 214
151 216
151 215
151 152
152 153
152 216
153 154
153 217
153 216
154 155
154 219
154 218
154 217
155 156
155 220
155 219
156 157
156 220
157 158
157 221
157 220
158 222
158 221
158 159
159 223
159 222
159 160
160 224
160 223
160 161
161 162
161 225
161 224
162 163
162 227
162 226
162 225
163 164
163 228
163 227
164 228
164 165
164 229
165 230
165 229
165 166
166 167
166 230
167 168
167 231
167 230
168 231
168 169
168 233
168 232
169 170
169 234
169 233
170 235
170 234
170 171
171 172
171 236
171 235
172 173
172 237
172 236
173 174
173 238
173 237
174 175
174 238
175 176
175 239
175 238
176 177
176 241
176 240
176 239
177 178
177 241
178 241
178 179
178 243
178 242
179 244
179 243
179 180
180 181
180 245
180 244
181 182
181 245
182 183
182 246
182 245
183 184
183 247
183 246
184 185
184 249
184 248
184 247
185 249
185 186
185 250
186 187
186 250
187 188
187 251
187 250
188 189
188 252
188 251
189 190
189 254
189 253
189 252
190 254
190 191
191 255
191 254
192 256
192 193
193 194
193 257
193 256
194 195
194 258
194 257
195 196
195 260
195 259
195 258
196 197
196 261
196 260
197 198
197 261
198 199
198 262
198 261
199 200
199 263
199 262
200 201
200 264
200 263
201 202
201 266
201 265
201 264
202 203
202 267
202 266
203 204
203 267
204 205
204 268
204 267
205 206
205 270
205 269
205 268
206 207
206 270
207 208
207 272
207 271
207 270
208 209
208 273
208 272
209 274
209 273
209 210
210 211
210 275
210 274
211 212
211 276
211 275
212 213
212 276
213 214
213 277
213 276
214 278
214 277
214 215
215 216
215 280
215 279
215 278
216 280
216 217
216 281
217 218
217 281
218 281
218 219
218 283
218 282
219 220
219 283
220 283
220 221
220 285
220 284
221 222
221 286
221 285
222 223
222 287
222 286
223 288
223 287
223 224
224 225
224 289
224 288
225 226
225 290
225 289
226 227
226 290
227 228
227 292
227 291
227 290
228 229
228 292
229 230
229 293
229 292
230 293
230 231
230 295
230 294
231 232
231 295
232 233
232 296
232 295
233 234
233 298
233 297
233 296
234 235
234 298
235 236
235 299
235 298
236 237
236 301
236 300
236 299
237 302
237 301
237 238
238 239
238 302
239 303
239 302
239 240
240 241
240 305
240 304
240 303
241 242
241 305
242 243
242 307
242 306
242 305
243 308
243 307
243 244
244 245
244 309
244 308
245 246
245 309
246 247
246 311
246 310
246 309
247 312
247 311
247 248
248 249
248 313
248 312
249 250
249 314
249 313
250 251
250 314
251 252
251 316
251 315
251 314
252 253
252 316
253 254
253 317
253 316
254 319
254 318
254 317
254 255
255 319
256 320
256 257
257 258
257 321
257 320
258 259
258 323
258 322
258 321
259 260
259 323
260 261
260 325
260 324
260 323
261 262
261 325
262 263
262 327
262 326
262 325
263 264
263 328
263 327
264 329
264 328
264 265
265 266
265 330
265 329
266 267
266 331
266 330
267 268
267 331
268 269
268 333
268 332
268 331
269 270
269 333
270 271
270 334
270 333
271 272
271 335
271 334
272 336
272 335
272 273
273 274
273 338
273 337
273 336
274 275
274 338
275 276
275 340
275 339
275 338
276 277
276 341
276 340
277 278
277 342
277 341
278 279
278 342
279 280
279 343
279 342
280 343
280 281
280 344
281 282
281 345
281 344
282 345
282 283
282 347
282 346
283 284
283 347
284 285
284 348
284 347
285 349
285 348
285 286
286 287
286 350
286 349
287 350
287 288
287 351
288 351
288 289
288 352
289 352
289 290
289 353
290 291
290 354
290 353
291 292
291 355
291 354
292 293
292 356
292 355
293 294
293 358
293 357
293 356
294 295
294 359
294 358
295 296
295 360
295 359
296 297
296 360
297 298
297 362
297 361
297 360
298 362
298 299
298 363
299 300
299 363
300 301
300 364
300 363
301 302
301 366
301 365
301 364
302 303
302 367
302 366
303 304
303 367
304 305
304 368
304 367
305 306
305 370
305 369
305 368
306 307
306 370
307 308
307 371
307 370
308 309
308 372
308 371
309 310
309 373
309 372
310 311
310 374
310 373
311 312
311 376
311 375
311 374
312 313
312 377
312 376
313 314
313 377
314 315
314 379
314 378
314 377
315 316
315 380
315 379
316 380
316 317
316 381
317 382
317 381
317 318
318 319
318 382
319 383
319 382
320 385
320 384
320 321
321 322
321 385
322 323
322 387
322 386
322 385
323 324
323 387
324 325
324 389
324 388
324 387
325 326
325 389
326 327
326 391
326 390
326 389
327 328
327 391
328 329
328 393
328 392
328 391
329 330
329 393
330 331
330 394
330 393
331 394
331 332
331 396
331 395
332 333
332 397
332 396
333 334
333 397
334 335
334 399
334 398
334 397
335 336
335 399
336 400
336 399
336 337
337 338
337 402
337 401
337 400
338 339
338 402
339 340
339 403
339 402
340 404
340 403
340 341
341 404
341 342
341 405
342 343
342 406
342 405
343 344
343 408
343 407
343 406
344 345
344 409
344 408
345 346
345 409
346 347
346 410
346 409
347 348
347 411
347 410
348 412
348 411
348 349
349 350
349 413
349 412
350 414
350 413
350 351
351 415
351 414
351 352
352 416
352 415
352 353
353 354
353 418
353 417
353 416
354 419
354 418
354 355
355 356
355 420
355 419
356 357
356 421
356 420
357 358
357 422
357 421
358 359
358 422
359 360
359 423
359 422
360 361
360 424
360 423
361 362
361 426
361 425
361 424
362 363
362 426
363 426
363 364
363 428
363 427
364 429
364 428
364 365
365 366
365 430
365 429
366 367
366 430
367 430
367 368
367 432
367 431
368 369
368 432
369 370
369 434
369 433
369 432
370 371
370 434
371 372
371 436
371 435
371 434
372 373
372 437
372 436
373 374
373 438
373 437
374 439
374 438
374 375
375 376
375 440
375 439
376 441
376 440
376 377
377 441
377 378
377 442
378 379
378 443
378 442
379 380
379 443
380 381
380 445
380 444
380 443
381 382
381 446
381 445
382 383
382 446
383 447
383 446
384 385
384 448
385 386
385 449
385 448
386 387
386 451
386 450
386 449
387 388
387 451
388 389
388 453
388 452
388 451
389 390
389 453
390 391
390 455
390 454
390 453
391 392
391 455
392 393
392 456
392 455
393 456
393 394
393 458
393 457
394 395
394 458
395 396
395 460
395 459
395 458
396 397
396 461
396 460
397 398
397 461
398 461
398 399
398 463
398 462
399 400
399 464
399 463
400 401
400 464
401 402
401 465
401 464
402 403
402 467
402 466
402 465
403 468
403 467
403 404
404 405
404 468
405 468
405 406
405 469
406 470
406 469
406 407
407 470
407 408
407 472
407 471
408 409
408 472
409 410
409 473
409 472
410 474
410 473
410 411
410 475
411 476
411 475
411 412
412 477
412 476
412 413
413 414
413 478
413 477
414 415
414 479
414 478
415 416
415 479
416 417
416 480
416 479
417 418
417 481
417 480
418 481
418 419
418 482
419 483
419 482
419 420
420 484
420 483
420 421
421 422
421 486
421 485
421 484
422 423
422 486
423 424
423 488
423 487
423 486
424 425
424 488
425 426
425 490
425 489
425 488
426 427
426 490
427 428
427 491
427 490
428 492
428 491
428 429
429 430
429 493
429 492
430 493
430 431
430 495
430 494
431 432
431 496
431 495
432 433
432 496
433 434
433 498
433 497
433 496
434 498
434 435
434 499
435 436
435 500
435 499
436 437
436 500
437 438
437 501
437 500
438 439
438 502
438 501
439 503
439 502
439 440
440 441
440 505
440 504
440 503
441 506
441 505
441 442
442 443
442 507
442 506
443 444
443 507
444 445
444 509
444 508
444 507
445 446
445 510
445 509
446 447
446 511
446 510
447 511
448 512
448 449
449 512
449 450
449 514
449 513
450 451
450 515
450 514
451 452
451 515
452 453
452 517
452 516
452 515
453 454
453 517
454 455
454 518
454 517
455 518
455 456
455 520
455 519
456 457
456 520
457 458
457 521
457 520
458 459
458 523
458 522
458 521
459 460
459 524
459 523
460 461
460 524
461 462
461 525
461 524
462 463
462 526
462 525
463 464
463 527
463 526
464 465
464 529
464 528
464 527
465 530
465 529
465 466
466 467
466 531
466 530
467 468
467 531
468 469
468 532
468 531
469 470
469 534
469 533
469 532
470 535
470 534
470 471
471 472
471 536
471 535
472 473
472 536
473 474
473 537
473 536
474 537
474 475
474 539
474 538
475 476
475 539
476 477
476 540
476 539
477 541
477 540
477 478
478 479
478 543
478 542
478 541
479 543
479 480
480 481
480 545
480 544
480 543
481 482
481 545
482 546
482 545
482 483
483 547
483 546
483 484
483 548
484 485
484 548
485 486
485 549
485 548
486 549
486 487
486 551
486 550
487 488
487 552
487 551
488 489
488 552
489 490
489 554
489 553
489 552
490 491
490 555
490 554
491 492
491 556
491 555
492 493
492 556
493 494
493 558
493 557
493 556
494 495
494 558
495 496
495 559
495 558
496 497
496 561
496 560
496 559
497 498
497 561
498 499
498 563
498 562
498 561
499 500
499 563
500 563
500 501
500 565
500 564
501 502
501 565
502 503
502 566
502 565
503 504
503 568
503 567
503 566
504 505
504 569
504 568
505 506
505 569
506 507
506 570
506 569
507 508
507 571
507 570
508 571
508 509
508 573
508 572
509 510
509 574
509 573
510 574
510 511
511 575
511 574
512 576
512 513
513 514
513 577
513 576
514 515
514 579
514 578
514 577
515 516
515 579
516 517
516 581
516 580
516 579
517 518
517 581
518 582
518 581
518 519
519 520
519 584
519 583
519 582
520 521
520 584
521 522
521 585
521 584
522 523
522 586
522 585
523 524
523 588
523 587
523 586
524 525
524 588
525 589
525 588
525 526
526 590
526 589
526 527
527 528
527 591
527 590
528 591
528 529
528 593
528 592
529 594
529 593
529 530
530 531
530 594
531 532
531 595
531 594
532 533
532 597
532 596
532 595
533 534
533 597
534 598
534 597
534 535
535 599
535 598
535 536
535 600
536 537
536 601
536 600
537 602
537 601
537 538
538 539
538 603
538 602
539 540
539 603
540 541
540 604
540 603
541 605
541 604
541 542
542 543
542 606
542 605
543 544
543 608
543 607
543 606
544 545
544 609
544 608
545 546
545 609
546 547
546 611
546 610
546 609
547 548
547 612
547 611
548 549
548 612
549 550
549 614
549 613
549 612
550 551
550 615
550 614
551 552
551 615
552 615
552 553
552 617
552 616
553 554
553 617
554 555
554 618
554 617
555 556
555 619
555 618
556 557
556 620
556 619
557 558
557 621
557 620
558 559
558 623
558 622
558 621
559 560
559 624
559 623
560 561
560 624
561 562
561 625
561 624
562 563
562 626
562 625
563 564
563 628
563 627
563 626
564 565
564 628
565 628
565 566
565 630
565 629
566 567
566 630
567 568
567 632
567 631
567 630
568 569
568 633
568 632
569 570
569 633
570 571
570 635
570 634
570 633
571 572
571 635
572 573
572 637
572 636
572 635
573 574
573 637
574 639
574 638
574 637
574 575
575 639
576 640
576 577
577 640
577 578
577 642
577 641
578 579
578 642
579 580
579 643
579 642
580 581
580 645
580 644
580 643
581 582
581 646
581 645
582 583
582 647
582 646
583 584
583 648
583 647
584 585
584 648
585 586
585 650
585 649
585 648
586 587
586 650
587 588
587 651
587 650
588 589
588 653
588 652
588 651
589 590
589 654
589 653
590 591
590 655
590 654
591 656
591 655
591 592
592 593
592 656
593 657
593 656
593 594
594 595
594 658
594 657
595 596
595 660
595 659
595 658
596 597
596 661
596 660
597 661
597 598
597 662
598 599
598 663
598 662
599 600
599 663
600 664
600 663
600 601
600 665
601 602
601 666
601 665
602 667
602 666
602 603
603 604
603 668
603 667
604 605
604 668
605 669
605 668
605 606
605 670
606 607
606 670
607 608
607 671
607 670
608 672
608 671
608 609
609 610
609 673
609 672
610 611
610 674
610 673
611 675
611 674
611 612
612 675
612 613
612 677
612 676
613 614
613 677
614 615
614 678
614 677
615 616
615 680
615 679
615 678
616 617
616 681
616 680
617 618
617 681
618 619
618 683
618 682
618 681
619 620
619 684
619 683
620 685
620 684
620 621
621 622
621 685
622 623
622 686
622 685
623 624
623 688
623 687
623 686
624 625
624 688
625 626
625 690
625 689
625 688
626 627
626 691
626 690
627 628
627 692
627 691
628 629
628 693
628 692
629 630
629 694
629 693
630 631
630 695
630 694
631 632
631 695
632 633
632 696
632 695
633 634
633 697
633 696
634 635
634 699
634 698
634 697
635 636
635 700
635 699
636 637
636 701
636 700
637 638
637 702
637 701
638 702
638 639
638 703
639 703
640 704
640 641
641 642
641 705
641 704
642 643
642 707
642 706
642 705
643 644
643 708
643 707
644 645
644 708
645 646
645 710
645 709
645 708
646 647
646 710
647 648
647 712
647 711
647 710
648 649
648 712
649 650
649 714
649 713
649 712
650 714
650 651
650 715
651 652
651 715
652 653
652 716
652 715
653 717
653 716
653 654
653 718
654 719
654 718
654 655
655 720
655 719
655 656
656 657
656 720
657 658
657 722
657 721
657 720
658 723
658 722
658 659
659 660
659 723
660 724
660 723
660 661
661 725
661 724
661 662
662 725
662 663
662 726
663 664
663 727
663 726
664 665
664 728
664 727
665 729
665 728
665 666
666 730
666 729
666 667
667 668
667 732
667 731
667 730
668 669
668 732
669 732
669 670
669 734
669 733
670 671
670 735
670 734
671 672
671 735
672 673
672 737
672 736
672 735
673 738
673 737
673 674
674 675
674 738
675 739
675 738
675 676
675 740
676 677
676 740
677 678
677 741
677 740
678 679
678 743
678 742
678 741
679 680
679 743
680 744
680 743
680 681
681 744
681 682
681 746
681 745
682 683
682 746
683 684
683 747
683 746
684 685
684 749
684 748
684 747
685 686
685 749
686 687
686 750
686 749
687 688
687 751
687 750
688 689
688 752
688 751
689 690
689 754
689 753
689 752
690 691
690 754
691 755
691 754
691 692
692 693
692 757
692 756
692 755
693 694
693 758
693 757
694 695
694 758
695 696
695 759
695 758
696 697
696 761
696 760
696 759
697 698
697 761
698 699
698 762
698 761
699 700
699 764
699 763
699 762
700 701
700 764
701 702
701 765
701 764
702 766
702 765
702 703
702 767
703 767
704 769
704 768
704 705
705 706
705 770
705 769
706 707
706 771
706 770
707 708
707 771
708 709
708 772
708 771
709 710
709 774
709 773
709 772
710 711
710 774
711 712
711 775
711 774
712 713
712 776
712 775
713 714
713 778
713 777
713 776
714 715
714 779
714 778
715 716
715 779
716 717
716 780
716 779
717 718
717 781
717 780
718 719
718 782
718 781
719 720
719 783
719 782
720 721
720 785
720 784
720 783
721 722
721 785
722 786
722 785
722 723
722 787
723 724
723 787
724 725
724 789
724 788
724 787
725 726
725 790
725 789
726 791
726 790
726 727
727 792
727 791
727 728
728 729
728 792
729 730
729 794
729 793
729 792
730 731
730 794
731 732
731 795
731 794
732 733
732 796
732 795
733 734
733 798
733 797
733 796
734 735
734 798
735 736
735 800
735 799
735 798
736 737
736 801
736 800
737 738
737 801
738 739
738 802
738 801
739 740
739 803
739 802
740 741
740 804
740 803
741 742
741 806
741 805
741 804
742 743
742 807
742 806
743 807
743 744
743 808
744 745
744 809
744 808
745 746
745 810
745 809
746 747
746 810
747 811
747 810
747 748
748 749
748 813
748 812
748 811
749 750
749 813
750 751
750 814
750 813
751 815
751 814
751 752
752 753
752 816
752 815
753 754
753 818
753 817
753 816
754 755
754 818
755 756
755 819
755 818
756 757
756 820
756 819
757 821
757 820
757 758
758 821
758 759
758 823
758 822
759 824
759 823
759 760
760 761
760 825
760 824
761 825
761 762
761 826
762 763
762 826
763 764
763 828
763 827
763 826
764 765
764 828
765 766
765 830
765 829
765 828
766 830
766 767
766 831
767 831
768 769
768 832
769 770
769 833
769 832
770 771
770 835
770 834
770 833
771 772
771 835
772 773
772 837
772 836
772 835
773 774
773 838
773 837
774 775
774 839
774 838
775 776
775 840
775 839
776 841
776 840
776 777
777 778
777 842
777 841
778 843
778 842
778 779
779 780
779 844
779 843
780 781
780 845
780 844
781 782
781 845
782 846
782 845
782 783
783 784
783 848
783 847
783 846
784 785
784 849
784 848
785 786
785 850
785 849
786 787
786 851
786 850
787 788
787 851
788 851
788 789
788 853
788 852
789 790
789 853
790 791
790 855
790 854
790 853
791 792
791 855
792 793
792 857
792 856
792 855
793 794
793 858
793 857
794 795
794 859
794 858
795 860
795 859
795 796
796 861
796 860
796 797
797 798
797 861
798 799
798 862
798 861
799 862
799 800
799 864
799 863
800 801
800 864
801 864
801 802
801 866
801 865
802 803
802 867
802 866
803 804
803 867
804 805
804 868
804 867
805 806
805 869
805 868
806 870
806 869
806 807
807 871
807 870
807 808
808 809
808 873
808 872
808 871
809 810
809 873
810 811
810 875
810 874
810 873
811 812
811 875
812 813
812 877
812 876
812 875
813 814
813 877
814 815
814 879
814 878
814 877
815 816
815 880
815 879
816 817
816 880
817 818
817 882
817 881
817 880
818 819
818 883
818 882
819 820
819 884
819 883
820 821
820 885
820 884
821 822
821 885
822 823
822 887
822 886
822 885
823 824
823 887
824 825
824 888
824 887
825 826
825 889
825 888
826 827
826 890
826 889
827 828
827 891
827 890
828 829
828 893
828 892
828 891
829 830
829 894
829 893
830 831
830 894
831 895
831 894
832 896
832 833
833 896
833 834
833 898
833 897
834 835
834 899
834 898
835 836
835 899
836 837
836 900
836 899
837 901
837 900
837 838
838 839
838 902
838 901
839 903
839 902
839 840
840 841
840 904
840 903
841 842
841 906
841 905
841 904
842 843
842 907
842 906
843 844
843 907
844 845
844 908
844 907
845 846
845 910
845 909
845 908
846 847
846 910
847 910
847 848
847 912
847 911
848 849
848 912
849 913
849 912
849 850
850 913
850 851
850 914
851 852
851 915
851 914
852 915
852 853
852 917
852 916
853 854
853 917
854 917
854 855
854 919
854 918
855 856
855 920
855 919
856 857
856 921
856 920
857 922
857 921
857 858
858 859
858 922
859 922
859 860
859 923
860 861
860 925
860 924
860 923
861 862
861 925
862 926
862 925
862 863
863 864
863 928
863 927
863 926
864 865
864 929
864 928
865 866
865 930
865 929
866 867
866 931
866 930
867 868
867 932
867 931
868 869
868 933
868 932
869 870
869 934
869 933
870 871
870 935
870 934
871 872
871 935
872 935
872 873
872 937
872 936
873 874
873 937
874 875
874 938
874 937
875 876
875 939
875 938
876 877
876 941
876 940
876 939
877 878
877 941
878 879
878 943
878 942
878 941
879 880
879 944
879 943
880 881
880 944
881 882
881 946
881 945
881 944
882 883
882 947
882 946
883 884
883 947
884 885
884 948
884 947
885 886
885 949
885 948
886 887
886 951
886 950
886 949
887 888
887 951
888 889
888 952
888 951
889 953
889 952
889 890
890 891
890 955
890 954
890 953
891 956
891 955
891 892
892 893
892 956
893 894
893 957
893 956
894 957
894 895
894 959
894 958
895 959
896 960
896 897
897 898
897 962
897 961
897 960
898 899
898 963
898 962
899 963
899 900
899 964
900 901
900 964
901 902
901 965
901 964
902 903
902 967
902 966
902 965
903 904
903 967
904 905
904 968
904 967
905 906
905 969
905 968
906 970
906 969
906 907
907 908
907 972
907 971
907 970
908 909
908 972
909 972
909 910
909 974
909 973
910 911
910 974
911 912
911 975
911 974
912 913
912 977
912 976
912 975
913 914
913 977
914 915
914 979
914 978
914 977
915 916
915 979
916 917
916 980
916 979
917 918
917 981
917 980
918 919
918 982
918 981
919 983
919 982
919 920
920 984
920 983
920 921
920 985
921 922
921 986
921 985
922 923
922 986
923 924
923 988
923 987
923 986
924 925
924 989
924 988
925 926
925 989
926 927
926 991
926 990
926 989
927 928
927 992
927 991
928 929
928 992
929 930
929 993
929 992
930 994
930 993
930 931
931 932
931 996
931 995
931 994
932 933
932 996
933 997
933 996
933 934
934 935
934 999
934 998
934 997
935 999
935 936
935 1000
936 937
936 1000
937 938
937 1001
937 1000
938 1001
938 939
938 1002
939 940
939 1004
939 1003
939 1002
940 941
940 1004
941 942
941 1005
941 1004
942 943
942 1006
942 1005
943 944
943 1007
943 1006
944 945
944 1008
944 1007
945 946
945 1010
945 1009
945 1008
946 947
946 1010
947 1010
947 948
947 1012
947 1011
948 1013
948 1012
948 949
949 950
949 1013
950 951
950 1015
950 1014
950 1013
951 952
951 1015
952 953
952 1016
952 1015
953 954
953 1017
953 1016
954 955
954 1019
954 1018
954 1017
955 956
955 1019
956 957
956 1020
956 1019
957 1021
957 1020
957 958
958 1021
958 959
958 1023
958 1022
959 1023
960 1024
960 961
961 962
961 1025
961 1024
962 1026
962 1025
962 963
963 964
963 1027
963 1026
964 1027
964 965
964 1029
964 1028
965 1030
965 1029
965 966
966 967
966 1031
966 1030
967 968
967 1031
968 969
968 1033
968 1032
968 1031
969 970
969 1034
969 1033
970 1035
970 1034
970 971
971 972
971 1036
971 1035
972 973
972 1037
972 1036
973 974
973 1037
974 1037
974 975
974 1039
974 1038
975 976
975 1039
976 1039
976 977
976 1041
976 1040
977 978
977 1042
977 1041
978 979
978 1043
978 1042
979 980
979 1044
979 1043
980 1045
980 1044
980 981
981 1046
981 1045
981 982
982 1047
982 1046
982 983
983 984
983 1047
984 985
984 1048
984 1047
985 1049
985 1048
985 986
986 987
986 1051
986 1050
986 1049
987 988
987 1051
988 989
988 1053
988 1052
988 1051
989 990
989 1054
989 1053
990 991
990 1055
990 1054
991 992
991 1055
992 993
992 1056
992 1055
993 1057
993 1056
993 994
993 1058
994 995
994 1059
994 1058
995 996
995 1059
996 997
996 1061
996 1060
996 1059
997 998
997 1061
998 1061
998 999
998 1063
998 1062
999 1000
999 1064
999 1063
1000 1001
1000 1065
1000 1064
1001 1066
1001 1065
1001 1002
1002 1003
1002 1066
1003 1004
1003 1067
1003 1066
1004 1005
1004 1068
1004 1067
1005 1068
1005 1006
1005 1069
1006 1007
1006 1071
1006 1070
1006 1069
1007 1008
1007 1072
1007 1071
1008 1009
1008 1072
1009 1010
1009 1073
1009 1072
1010 1011
1010 1074
1010 1073
1011 1012
1011 1076
1011 1075
1011 1074
1012 1013
1012 1077
1012 1076
1013 1014
1013 1078
1013 1077
1014 1015
1014 1079
1014 1078
1015 1016
1015 1080
1015 1079
1016 1017
1016 1081
1016 1080
1017 1018
1017 1081
1018 1019
1018 1083
1018 1082
1018 1081
1019 1020
1019 1083
1020 1021
1020 1085
1020 1084
1020 1083
1021 1022
1021 1085
1022 1085
1022 1023
1022 1087
1022 1086
1023 1087
1024 1089
1024 1088
1024 1025
1025 1026
1025 1089
1026 1027
1026 1091
1026 1090
1026 1089
1027 1028
1027 1091
1028 1029
1028 1092
1028 1091
1029 1030
1029 1094
1029 1093
1029 1092
1030 1031
1030 1094
1031 1094
1031 1032
1031 1096
1031 1095
1032 1033
1032 1096
1033 1097
1033 1096
1033 1034
1034 1035
1034 1099
1034 1098
1034 1097
1035 1036
1035 1099
1036 1037
1036 1101
1036 1100
1036 1099
1037 1038
1037 1102
1037 1101
1038 1039
1038 1103
1038 1102
1039 1040
1039 1104
1039 1103
1040 1041
1040 1105
1040 1104
1041 1042
1041 1105
1042 1106
1042 1105
1042 1043
1043 1107
1043 1106
1043 1044
1044 1108
1044 1107
1044 1045
1044 1109
1045 1110
1045 1109
1045 1046
1046 1111
1046 1110
1046 1047
1047 1048
1047 1112
1047 1111
1048 1113
1048 1112
1048 1049
1049 1050
1049 1113
1050 1051
1050 1114
1050 1113
1051 1052
1051 1116
1051 1115
1051 1114
1052 1053
1052 1117
1052 1116
1053 1117
1053 1054
1054 1118
1054 1117
1054 1055
1055 1056
1055 1119
1055 1118
1056 1120
1056 1119
1056 1057
1056 1121
1057 1058
1057 1122
1057 1121
1058 1059
1058 1122
1059 1060
1059 1123
1059 1122
1060 1123
1060 1061
1060 1125
1060 1124
1061 1062
1061 1126
1061 1125
1062 1063
1062 1127
1062 1126
1063 1064
1063 1127
1064 1128
1064 1127
1064 1065
1065 1129
1065 1128
1065 1066
1066 1067
1066 1130
1066 1129
1067 1068
1067 1132
1067 1131
1067 1130
1068 1069
1068 1133
1068 1132
1069 1134
1069 1133
1069 1070
1070 1071
1070 1135
1070 1134
1071 1072
1071 1136
1071 1135
1072 1073
1072 1136
1073 1074
1073 1138
1073 1137
1073 1136
1074 1075
1074 1138
1075 1076
1075 1139
1075 1138
1076 1077
1076 1141
1076 1140
1076 1139
1077 1078
1077 1142
1077 1141
1078 1079
1078 1142
1079 1080
1079 1144
1079 1143
1079 1142
1080 1081
1080 1145
1080 1144
1081 1082
1081 1145
1082 1083
1082 1146
1082 1145
1083 1084
1083 1147
1083 1146
1084 1085
1084 1148
1084 1147
1085 1086
1085 1150
1085 1149
1085 1148
1086 1087
1086 1150
1087 1151
1087 1150
1088 1152
1088 1089
1088 1153
1089 1090
1089 1153
1090 1091
1090 1155
1090 1154
1090 1153
1091 1155
1091 1092
1091 1156
1092 1093
1092 1156
1093 1094
1093 1158
1093 1157
1093 1156
1094 1095
1094 1158
1095 1158
1095 1096
1095 1160
1095 1159
1096 1160
1096 1097
1096 1161
1097 1162
1097 1161
1097 1098
1098 1099
1098 1163
1098 1162
1099 1100
1099 1163
1100 1101
1100 1164
1100 1163
1101 1165
1101 1164
1101 1102
1102 1166
1102 1165
1102 1103
1103 1166
1103 1104
1103 1167
1104 1168
1104 1167
1104 1105
1105 1106
1105 1169
1105 1168
1106 1107
1106 1171
1106 1170
1106 1169
1107 1172
1107 1171
1107 1108
1108 1109
1108 1173
1108 1172
1109 1110
1109 1173
1110 1174
1110 1173
1110 1111
1111 1175
1111 1174
1111 1112
1112 1176
1112 1175
1112 1113
1113 1114
1113 1177
1113 1176
1114 1177
1114 1115
1114 1178
1115 1116
1115 1180
1115 1179
1115 1178
1116 1181
1116 1180
1116 1117
1117 1118
1117 1182
1117 1181
1118 1119
1118 1183
1118 1182
1119 1183
1119 1120
1120 1121
1120 1184
1120 1183
1121 1122
1121 1186
1121 1185
1121 1184
1122 1123
1122 1187
1122 1186
1123 1124
1123 1187
1124 1125
1124 1188
1124 1187
1125 1189
1125 1188
1125 1126
1125 1190
1126 1127
1126 1190
1127 1128
1127 1192
1127 1191
1127 1190
1128 1193
1128 1192
1128 1129
1129 1194
1129 1193
1129 1130
1130 1131
1130 1194
1131 1194
1131 1132
1131 1196
1131 1195
1132 1133
1132 1197
1132 1196
1133 1134
1133 1198
1133 1197
1134 1135
1134 1198
1135 1136
1135 1199
1135 1198
1136 1137
1136 1201
1136 1200
1136 1199
1137 1138
1137 1202
1137 1201
1138 1139
1138 1203
1138 1202
1139 1140
1139 1203
1140 1141
1140 1205
1140 1204
1140 1203
1141 1206
1141 1205
1141 1142
1142 1143
1142 1206
1143 1144
1143 1207
1143 1206
1144 1208
1144 1207
1144 1145
1145 1208
1145 1146
1145 1210
1145 1209
1146 1211
1146 1210
1146 1147
1147 1148
1147 1212
1147 1211
1148 1213
1148 1212
1148 1149
1149 1150
1149 1214
1149 1213
1150 1151
1150 1214
1151 1215
1151 1214
1152 1216
1152 1153
1152 1217
1153 1154
1153 1217
1154 1155
1154 1218
1154 1217
1155 1156
1155 1220
1155 1219
1155 1218
1156 1157
1156 1220
1157 1158
1157 1221
1157 1220
1158 1159
1158 1223
1158 1222
1158 1221
1159 1160
1159 1223
1160 1161
1160 1224
1160 1223
1161 1225
1161 1224
1161 1162
1161 1226
1162 1227
1162 1226
1162 1163
1163 1164
1163 1227
1164 1228
1164 1227
1164 1165
1165 1166
1165 1230
1165 1229
1165 1228
1166 1231
1166 1230
1166 1167
1167 1232
1167 1231
1167 1168
1168 1169
1168 1232
1169 1170
1169 1233
1169 1232
1170 1171
1170 1234
1170 1233
1171 1235
1171 1234
1171 1172
1172 1173
1172 1237
1172 1236
1172 1235
1173 1174
1173 1238
1173 1237
1174 1239
1174 1238
1174 1175
1175 1176
1175 1239
1176 1240
1176 1239
1176 1177
1176 1241
1177 1178
1177 1242
1177 1241
1178 1243
1178 1242
1178 1179
1179 1180
1179 1244
1179 1243
1180 1181
1180 1244
1181 1182
1181 1245
1181 1244
1182 1183
1182 1247
1182 1246
1182 1245
1183 1184
1183 1247
1184 1185
1184 1248
1184 1247
1185 1248
1185 1186
1185 1250
1185 1249
1186 1187
1186 1251
1186 1250
1187 1188
1187 1251
1188 1252
1188 1251
1188 1189
1189 1190
1189 1254
1189 1253
1189 1252
1190 1191
1190 1255
1190 1254
1191 1192
1191 1255
1192 1256
1192 1255
1192 1193
1193 1257
1193 1256
1193 1194
1194 1195
1194 1259
1194 1258
1194 1257
1195 1196
1195 1259
1196 1260
1196 1259
1196 1197
1197 1198
1197 1262
1197 1261
1197 1260
1198 1199
1198 1262
1199 1200
1199 1264
1199 1263
1199 1262
1200 1201
1200 1265
1200 1264
1201 1202
1201 1265
1202 1266
1202 1265
1202 1203
1203 1204
1203 1267
1203 1266
1204 1205
1204 1269
1204 1268
1204 1267
1205 1206
1205 1270
1205 1269
1206 1207
1206 1270
1207 1208
1207 1272
1207 1271
1207 1270
1208 1209
1208 1273
1208 1272
1209 1210
1209 1274
1209 1273
1210 1211
1210 1274
1211 1275
1211 1274
1211 1212
1212 1213
1212 1277
1212 1276
1212 1275
1213 1214
1213 1277
1214 1278
1214 1277
1214 1215
1215 1279
1215 1278
1216 1217
1216 1280
1217 1280
1217 1218
1217 1281
1218 1219
1218 1283
1218 1282
1218 1281
1219 1220
1219 1284
1219 1283
1220 1221
1220 1284
1221 1222
1221 1285
1221 1284
1222 1223
1222 1287
1222 1286
1222 1285
1223 1224
1223 1287
1224 1225
1224 1288
1224 1287
1225 1226
1225 1289
1225 1288
1226 1290
1226 1289
1226 1227
1226 1291
1227 1228
1227 1291
1228 1229
1228 1293
1228 1292
1228 1291
1229 1230
1229 1293
1230 1231
1230 1295
1230 1294
1230 1293
1231 1296
1231 1295
1231 1232
1232 1296
1232 1233
1232 1297
1233 1234
1233 1297
1234 1297
1234 1235
1234 1298
1235 1299
1235 1298
1235 1236
1236 1299
1236 1237
1236 1301
1236 1300
1237 1238
1237 1302
1237 1301
1238 1239
1238 1303
1238 1302
1239 1240
1239 1303
1240 1241
1240 1304
1240 1303
1241 1304
1241 1242
1241 1305
1242 1306
1242 1305
1242 1243
1242 1307
1243 1244
1243 1307
1244 1245
1244 1308
1244 1307
1245 1308
1245 1246
1245 1309
1246 1247
1246 1311
1246 1310
1246 1309
1247 1248
1247 1311
1248 1249
1248 1313
1248 1312
1248 1311
1249 1250
1249 1314
1249 1313
1250 1315
1250 1314
1250 1251
1251 1315
1251 1252
1251 1316
1252 1253
1252 1316
1253 1254
1253 1317
1253 1316
1254 1318
1254 1317
1254 1255
1254 1319
1255 1256
1255 1319
1256 1257
1256 1321
1256 1320
1256 1319
1257 1258
1257 1321
1258 1321
1258 1259
1258 1323
1258 1322
1259 1260
1259 1323
1260 1324
1260 1323
1260 1261
1261 1324
1261 1262
1261 1326
1261 1325
1262 1326
1262 1263
1262 1327
1263 1264
1263 1327
1264 1265
1264 1328
1264 1327
1265 1328
1265 1266
1265 1330
1265 1329
1266 1267
1266 1331
1266 1330
1267 1268
1267 1332
1267 1331
1268 1269
1268 1332
1269 1333
1269 1332
1269 1270
1270 1271
1270 1334
1270 1333
1271 1272
1271 1336
1271 1335
1271 1334
1272 1273
1272 1336
1273 1274
1273 1338
1273 1337
1273 1336
1274 1275
1274 1338
1275 1276
1275 1339
1275 1338
1276 1277
1276 1340
1276 1339
1277 1278
1277 1342
1277 1341
1277 1340
1278 1343
1278 1342
1278 1279
1279 1343
1280 1344
1280 1281
1281 1282
1281 1345
1281 1344
1282 1283
1282 1346
1282 1345
1283 1284
1283 1347
1283 1346
1284 1347
1284 1285
1284 1349
1284 1348
1285 1286
1285 1349
1286 1287
1286 1350
1286 1349
1287 1288
1287 1352
1287 1351
1287 1350
1288 1289
1288 1352
1289 1290
1289 1354
1289 1353
1289 1352
1290 1291
1290 1355
1290 1354
1291 1292
1291 1355
1292 1355
1292 1293
1292 1357
1292 1356
1293 1294
1293 1357
1294 1295
1294 1358
1294 1357
1295 1359
1295 1358
1295 1296
1295 1360
1296 1361
1296 1360
1296 1297
1297 1298
1297 1362
1297 1361
1298 1299
1298 1362
1299 1363
1299 1362
1299 1300
1300 1301
1300 1364
1300 1363
1301 1365
1301 1364
1301 1302
1301 1366
1302 1303
1302 1366
1303 1304
1303 1368
1303 1367
1303 1366
1304 1305
1304 1368
1305 1306
1305 1370
1305 1369
1305 1368
1306 1307
1306 1370
1307 1308
1307 1371
1307 1370
1308 1309
1308 1373
1308 1372
1308 1371
1309 1374
1309 1373
1309 1310
1310 1311
1310 1374
1311 1312
1311 1376
1311 1375
1311 1374
1312 1313
1312 1377
1312 1376
1313 1314
1313 1377
1314 1315
1314 1378
1314 1377
1315 1316
1315 1380
1315 1379
1315 1378
1316 1317
1316 1381
1316 1380
1317 1318
1317 1382
1317 1381
1318 1319
1318 1383
1318 1382
1319 1320
1319 1384
1319 1383
1320 1321
1320 1385
1320 1384
1321 1385
1321 1322
1322 1385
1322 1323
1322 1387
1322 1386
1323 1387
1323 1324
1323 1388
1324 1389
1324 1388
1324 1325
1325 1326
1325 1390
1325 1389
1326 1327
1326 1390
1327 1328
1327 1392
1327 1391
1327 1390
1328 1329
1328 1392
1329 1330
1329 1394
1329 1393
1329 1392
1330 1395
1330 1394
1330 1331
1331 1332
1331 1396
1331 1395
1332 1396
1332 1333
1332 1397
1333 1334
1333 1398
1333 1397
1334 1335
1334 1398
1335 1336
1335 1400
1335 1399
1335 1398
1336 1337
1336 1400
1337 1338
1337 1401
1337 1400
1338 1339
1338 1402
1338 1401
1339 1340
1339 1404
1339 1403
1339 1402
1340 1341
1340 1405
1340 1404
1341 1342
1341 1406
1341 1405
1342 1407
1342 1406
1342 1343
1343 1407
1344 1409
1344 1408
1344 1345
1345 1409
1345 1346
1345 1410
1346 1347
1346 1411
1346 1410
1347 1412
1347 1411
1347 1348
1348 1349
1348 1412
1349 1350
1349 1413
1349 1412
1350 1351
1350 1415
1350 1414
1350 1413
1351 1352
1351 1416
1351 1415
1352 1353
1352 1416
1353 1354
1353 1417
1353 1416
1354 1417
1354 1355
1354 1418
1355 1356
1355 1419
1355 1418
1356 1357
1356 1420
1356 1419
1357 1358
1357 1421
1357 1420
1358 1422
1358 1421
1358 1359
1359 1422
1359 1360
1359 1424
1359 1423
1360 1361
1360 1424
1361 1424
1361 1362
1361 1425
1362 1363
1362 1427
1362 1426
1362 1425
1363 1428
1363 1427
1363 1364
1364 1365
1364 1428
1365 1366
1365 1429
1365 1428
1366 1367
1366 1430
1366 1429
1367 1368
1367 1432
1367 1431
1367 1430
1368 1369
1368 1433
1368 1432
1369 1370
1369 1434
1369 1433
1370 1371
1370 1435
1370 1434
1371 1372
1371 1435
1372 1373
1372 1436
1372 1435
1373 1374
1373 1438
1373 1437
1373 1436
1374 1375
1374 1438
1375 1376
1375 1440
1375 1439
1375 1438
1376 1377
1376 1441
1376 1440
1377 1378
1377 1441
1378 1442
1378 1441
1378 1379
1379 1380
1379 1444
1379 1443
1379 1442
1380 1381
1380 1444
1381 1445
1381 1444
1381 1382
1382 1446
1382 1445
1382 1383
1383 1447
1383 1446
1383 1384
1383 1448
1384 1385
1384 1448
1385 1386
1385 1450
1385 1449
1385 1448
1386 1387
1386 1451
1386 1450
1387 1388
1387 1451
1388 1451
1388 1389
1388 1452
1389 1390
1389 1454
1389 1453
1389 1452
1390 1391
1390 1454
1391 1392
1391 1456
1391 1455
1391 1454
1392 1393
1392 1457
1392 1456
1393 1394
1393 1458
1393 1457
1394 1395
1394 1458
1395 1396
1395 1460
1395 1459
1395 1458
1396 1397
1396 1461
1396 1460
1397 1398
1397 1462
1397 1461
1398 1399
1398 1462
1399 1400
1399 1463
1399 1462
1400 1401
1400 1464
1400 1463
1401 1402
1401 1465
1401 1464
1402 1403
1402 1467
1402 1466
1402 1465
1403 1404
1403 1467
1404 1405
1404 1469
1404 1468
1404 1467
1405 1406
1405 1470
1405 1469
1406 1470
1406 1407
1407 1471
1407 1470
1408 1472
1408 1409
1408 1473
1409 1410
1409 1473
1410 1411
1410 1475
1410 1474
1410 1473
1411 1412
1411 1476
1411 1475
1412 1413
1412 1476
1413 1414
1413 1478
1413 1477
1413 1476
1414 1415
1414 1478
1415 1416
1415 1480
1415 1479
1415 1478
1416 1417
1416 1480
1417 1418
1417 1482
1417 1481
1417 1480
1418 1419
1418 1483
1418 1482
1419 1420
1419 1483
1420 1421
1420 1485
1420 1484
1420 1483
1421 1486
1421 1485
1421 1422
1422 1423
1422 1486
1423 1424
1423 1487
1423 1486
1424 1425
1424 1489
1424 1488
1424 1487
1425 1426
1425 1490
1425 1489
1426 1427
1426 1491
1426 1490
1427 1428
1427 1492
1427 1491
1428 1429
1428 1493
1428 1492
1429 1494
1429 1493
1429 1430
1430 1431
1430 1495
1430 1494
1431 1432
1431 1496
1431 1495
1432 1433
1432 1497
1432 1496
1433 1434
1433 1497
1434 1435
1434 1499
1434 1498
1434 1497
1435 1436
1435 1500
1435 1499
1436 1501
1436 1500
1436 1437
1437 1438
1437 1502
1437 1501
1438 1439
1438 1502
1439 1440
1439 1503
1439 1502
1440 1504
1440 1503
1440 1441
1441 1442
1441 1505
1441 1504
1442 1506
1442 1505
1442 1443
1443 1506
1443 1444
1443 1508
1443 1507
1444 1445
1444 1509
1444 1508
1445 1446
1445 1509
1446 1510
1446 1509
1446 1447
1446 1511
1447 1448
1447 1512
1447 1511
1448 1449
1448 1513
1448 1512
1449 1450
1449 1514
1449 1513
1450 1515
1450 1514
1450 1451
1451 1515
1451 1452
1451 1516
1452 1453
1452 1517
1452 1516
1453 1454
1453 1518
1453 1517
1454 1455
1454 1518
1455 1518
1455 1456
1455 1520
1455 1519
1456 1457
1456 1520
1457 1521
1457 1520
1457 1458
1458 1459
1458 1522
1458 1521
1459 1460
1459 1524
1459 1523
1459 1522
1460 1525
1460 1524
1460 1461
1461 1462
1461 1526
1461 1525
1462 1463
1462 1526
1463 1464
1463 1528
1463 1527
1463 1526
1464 1529
1464 1528
1464 1465
1465 1466
1465 1529
1466 1467
1466 1531
1466 1530
1466 1529
1467 1468
1467 1531
1468 1469
1468 1532
1468 1531
1469 1533
1469 1532
1469 1470
1470 1535
1470 1534
1470 1533
1470 1471
1471 1535
1472 1536
1472 1473
1472 1537
1473 1474
1473 1537
1474 1475
1474 1538
1474 1537
1475 1476
1475 1539
1475 1538
1476 1477
1476 1540
1476 1539
1477 1478
1477 1541
1477 1540
1478 1479
1478 1542
1478 1541
1479 1542
1479 1480
1479 1544
1479 1543
1480 1544
1480 1481
1481 1482
1481 1546
1481 1545
1481 1544
1482 1483
1482 1546
1483 1484
1483 1548
1483 1547
1483 1546
1484 1485
1484 1549
1484 1548
1485 1486
1485 1550
1485 1549
1486 1487
1486 1550
1487 1488
1487 1551
1487 1550
1488 1489
1488 1552
1488 1551
1489 1552
1489 1490
1489 1553
1490 1554
1490 1553
1490 1491
1491 1555
1491 1554
1491 1492
1492 1556
1492 1555
1492 1493
1492 1557
1493 1494
1493 1557
1494 1495
1494 1559
1494 1558
1494 1557
1495 1496
1495 1559
1496 1497
1496 1561
1496 1560
1496 1559
1497 1498
1497 1561
1498 1561
1498 1499
1498 1563
1498 1562
1499 1500
1499 1563
1500 1564
1500 1563
1500 1501
1501 1564
1501 1502
1501 1565
1502 1503
1502 1566
1502 1565
1503 1504
1503 1568
1503 1567
1503 1566
1504 1505
1504 1568
1505 1569
1505 1568
1505 1506
1505 1570
1506 1507
1506 1570
1507 1570
1507 1508
1507 1572
1507 1571
1508 1573
1508 1572
1508 1509
1509 1510
1509 1573
1510 1575
1510 1574
1510 1573
1510 1511
1511 1512
1511 1575
1512 1576
1512 1575
1512 1513
1513 1577
1513 1576
1513 1514
1513 1578
1514 1515
1514 1578
1515 1579
1515 1578
1515 1516
1516 1580
1516 1579
1516 1517
1517 1581
1517 1580
1517 1518
1518 1582
1518 1581
1518 1519
1519 1582
1519 1520
1519 1584
1519 1583
1520 1521
1520 1584
1521 1522
1521 1585
1521 1584
1522 1586
1522 1585
1522 1523
1523 1524
1523 1587
1523 1586
1524 1587
1524 1525
1524 1588
1525 1589
1525 1588
1525 1526
1526 1589
1526 1527
1526 1591
1526 1590
1527 1528
1527 1592
1527 1591
1528 1592
1528 1529
1529 1530
1529 1594
1529 1593
1529 1592
1530 1531
1530 1595
1530 1594
1531 1532
1531 1596
1531 1595
1532 1533
1532 1597
1532 1596
1533 1534
1533 1597
1534 1535
1534 1598
1534 1597
1535 1599
1535 1598
1536 1600
1536 1537
1536 1601
1537 1538
1537 1601
1538 1539
1538 1602
1538 1601
1539 1603
1539 1602
1539 1540
1539 1604
1540 1541
1540 1605
1540 1604
1541 1606
1541 1605
1541 1542
1542 1607
1542 1606
1542 1543
1543 1544
1543 1608
1543 1607
1544 1545
1544 1608
1545 1546
1545 1609
1545 1608
1546 1547
1546 1610
1546 1609
1547 1610
1547 1548
1547 1612
1547 1611
1548 1549
1548 1612
1549 1613
1549 1612
1549 1550
1550 1551
1550 1615
1550 1614
1550 1613
1551 1616
1551 1615
1551 1552
1552 1553
1552 1616
1553 1554
1553 1617
1553 1616
1554 1617
1554 1555
1554 1618
1555 1619
1555 1618
1555 1556
1555 1620
1556 1557
1556 1620
1557 1620
1557 1558
1557 1622
1557 1621
1558 1559
1558 1622
1559 1560
1559 1624
1559 1623
1559 1622
1560 1561
1560 1625
1560 1624
1561 1562
1561 1625
1562 1563
1562 1626
1562 1625
1563 1564
1563 1627
1563 1626
1564 1565
1564 1629
1564 1628
1564 1627
1565 1566
1565 1629
1566 1630
1566 1629
1566 1567
1567 1630
1567 1568
1567 1632
1567 1631
1568 1569
1568 1632
1569 1570
1569 1634
1569 1633
1569 1632
1570 1571
1570 1635
1570 1634
1571 1572
1571 1635
1572 1573
1572 1636
1572 1635
1573 1637
1573 1636
1573 1574
1574 1575
1574 1639
1574 1638
1574 1637
1575 1576
1575 1640
1575 1639
1576 1577
1576 1641
1576 1640
1577 1578
1577 1641
1578 1579
1578 1642
1578 1641
1579 1643
1579 1642
1579 1580
1579 1644
1580 1645
1580 1644
1580 1581
1581 1646
1581 1645
1581 1582
1582 1647
1582 1646
1582 1583
1583 1584
1583 1648
1583 1647
1584 1585
1584 1648
1585 1586
1585 1650
1585 1649
1585 1648
1586 1587
1586 1650
1587 1588
1587 1651
1587 1650
1588 1652
1588 1651
1588 1589
1589 1652
1589 1590
1589 1653
1590 1591
1590 1655
1590 1654
1590 1653
1591 1592
1591 1655
1592 1593
1592 1656
1592 1655
1593 1594
1593 1658
1593 1657
1593 1656
1594 1595
1594 1658
1595 1596
1595 1659
1595 1658
1596 1597
1596 1660
1596 1659
1597 1598
1597 1661
1597 1660
1598 1662
1598 1661
1598 1599
1598 1663
1599 1663
1600 1664
1600 1601
1600 1665
1601 1602
1601 1666
1601 1665
1602 1603
1602 1666
1603 1604
1603 1668
1603 1667
1603 1666
1604 1605
1604 1669
1604 1668
1605 1606
1605 1669
1606 1670
1606 1669
1606 1607
1607 1608
1607 1672
1607 1671
1607 1670
1608 1609
1608 1673
1608 1672
1609 1610
1609 1674
1609 1673
1610 1611
1610 1674
1611 1612
1611 1676
1611 1675
1611 1674
1612 1613
1612 1676
1613 1614
1613 1678
1613 1677
1613 1676
1614 1615
1614 1679
1614 1678
1615 1680
1615 1679
1615 1616
1616 1617
1616 1681
1616 1680
1617 1618
1617 1681
1618 1682
1618 1681
1618 1619
1619 1682
1619 1620
1619 1684
1619 1683
1620 1621
1620 1684
1621 1622
1621 1685
1621 1684
1622 1623
1622 1686
1622 1685
1623 1686
1623 1624
1623 1688
1623 1687
1624 1625
1624 1688
1625 1626
1625 1689
1625 1688
1626 1690
1626 1689
1626 1627
1627 1628
1627 1692
1627 1691
1627 1690
1628 1629
1628 1692
1629 1630
1629 1694
1629 1693
1629 1692
1630 1631
1630 1694
1631 1694
1631 1632
1631 1696
1631 1695
1632 1633
1632 1697
1632 1696
1633 1634
1633 1698
1633 1697
1634 1635
1634 1699
1634 1698
1635 1636
1635 1699
1636 1637
1636 1701
1636 1700
1636 1699
1637 1638
1637 1701
1638 1639
1638 1702
1638 1701
1639 1702
1639 1640
1639 1703
1640 1703
1640 1641
1640 1704
1641 1642
1641 1705
1641 1704
1642 1643
1642 1707
1642 1706
1642 1705
1643 1644
1643 1707
1644 1708
1644 1707
1644 1645
1644 1709
1645 1646
1645 1709
1646 1647
1646 1711
1646 1710
1646 1709
1647 1712
1647 1711
1647 1648
1648 1649
1648 1713
1648 1712
1649 1650
1649 1714
1649 1713
1650 1714
1650 1651
1650 1715
1651 1716
1651 1715
1651 1652
1652 1653
1652 1716
1653 1654
1653 1718
1653 1717
1653 1716
1654 1655
1654 1719
1654 1718
1655 1656
1655 1719
1656 1657
1656 1720
1656 1719
1657 1658
1657 1722
1657 1721
1657 1720
1658 1659
1658 1722
1659 1660
1659 1723
1659 1722
1660 1661
1660 1725
1660 1724
1660 1723
1661 1662
1661 1725
1662 1725
1662 1663
1662 1727
1662 1726
1663 1727
1664 1665
1664 1728
1665 1666
1665 1729
1665 1728
1666 1667
1666 1730
1666 1729
1667 1668
1667 1732
1667 1731
1667 1730
1668 1669
1668 1733
1668 1732
1669 1670
1669 1733
1670 1671
1670 1735
1670 1734
1670 1733
1671 1672
1671 1736
1671 1735
1672 1673
1672 1736
1673 1674
1673 1738
1673 1737
1673 1736
1674 1675
1674 1738
1675 1738
1675 1676
1675 1740
1675 1739
1676 1677
1676 1740
1677 1740
1677 1678
1677 1742
1677 1741
1678 1679
1678 1742
1679 1680
1679 1744
1679 1743
1679 1742
1680 1745
1680 1744
1680 1681
1681 1682
1681 1745
1682 1683
1682 1747
1682 1746
1682 1745
1683 1684
1683 1747
1684 1685
1684 1748
1684 1747
1685 1749
1685 1748
1685 1686
1686 1750
1686 1749
1686 1687
1687 1688
1687 1752
1687 1751
1687 1750
1688 1689
1688 1753
1688 1752
1689 1690
1689 1754
1689 1753
1690 1691
1690 1755
1690 1754
1691 1692
1691 1756
1691 1755
1692 1693
1692 1756
1693 1756
1693 1694
1693 1758
1693 1757
1694 1695
1694 1758
1695 1758
1695 1696
1695 1760
1695 1759
1696 1697
1696 1761
1696 1760
1697 1698
1697 1761
1698 1762
1698 1761
1698 1699
1699 1700
1699 1763
1699 1762
1700 1701
1700 1764
1700 1763
1701 1702
1701 1766
1701 1765
1701 1764
1702 1767
1702 1766
1702 1703
1703 1704
1703 1767
1704 1705
1704 1769
1704 1768
1704 1767
1705 1770
1705 1769
1705 1706
1706 1707
1706 1771
1706 1770
1707 1708
1707 1771
1708 1771
1708 1709
1708 1773
1708 1772
1709 1710
1709 1773
1710 1773
1710 1711
1710 1775
1710 1774
1711 1776
1711 1775
1711 1712
1712 1713
1712 1776
1713 1776
1713 1714
1713 1777
1714 1778
1714 1777
1714 1715
1714 1779
1715 1716
1715 1780
1715 1779
1716 1717
1716 1780
1717 1780
1717 1718
1717 1782
1717 1781
1718 1719
1718 1783
1718 1782
1719 1720
1719 1784
1719 1783
1720 1721
1720 1784
1721 1722
1721 1785
1721 1784
1722 1723
1722 1786
1722 1785
1723 1724
1723 1788
1723 1787
1723 1786
1724 1725
1724 1788
1725 1726
1725 1789
1725 1788
1726 1789
1726 1727
1726 1791
1726 1790
1727 1791
1728 1793
1728 1792
1728 1729
1729 1730
1729 1793
1730 1731
1730 1794
1730 1793
1731 1732
1731 1795
1731 1794
1732 1796
1732 1795
1732 1733
1732 1797
1733 1734
1733 1797
1734 1735
1734 1798
1734 1797
1735 1736
1735 1799
1735 1798
1736 1737
1736 1801
1736 1800
1736 1799
1737 1738
1737 1802
1737 1801
1738 1739
1738 1802
1739 1802
1739 1740
1739 1804
1739 1803
1740 1741
1740 1804
1741 1804
1741 1742
1741 1806
1741 1805
1742 1743
1742 1806
1743 1806
1743 1744
1743 1808
1743 1807
1744 1745
1744 1808
1745 1746
1745 1810
1745 1809
1745 1808
1746 1747
1746 1810
1747 1748
1747 1811
1747 1810
1748 1749
1748 1813
1748 1812
1748 1811
1749 1750
1749 1813
1750 1814
1750 1813
1750 1751
1750 1815
1751 1752
1751 1816
1751 1815
1752 1753
1752 1816
1753 1817
1753 1816
1753 1754
1754 1818
1754 1817
1754 1755
1755 1819
1755 1818
1755 1756
1756 1757
1756 1820
1756 1819
1757 1758
1757 1821
1757 1820
1758 1759
1758 1823
1758 1822
1758 1821
1759 1760
1759 1823
1760 1824
1760 1823
1760 1761
1761 1762
1761 1826
1761 1825
1761 1824
1762 1763
1762 1826
1763 1827
1763 1826
1763 1764
1763 1828
1764 1765
1764 1828
1765 1828
1765 1766
1765 1830
1765 1829
1766 1767
1766 1831
1766 1830
1767 1768
1767 1831
1768 1769
1768 1832
1768 1831
1769 1832
1769 1770
1769 1833
1770 1833
1770 1771
1770 1834
1771 1836
1771 1835
1771 1834
1771 1772
1772 1773
1772 1836
1773 1774
1773 1837
1773 1836
1774 1775
1774 1838
1774 1837
1775 1839
1775 1838
1775 1776
1775 1840
1776 1840
1776 1777
1777 1841
1777 1840
1777 1778
1778 1779
1778 1842
1778 1841
1779 1842
1779 1780
1779 1843
1780 1781
1780 1844
1780 1843
1781 1844
1781 1782
1781 1846
1781 1845
1782 1783
1782 1846
1783 1846
1783 1784
1783 1847
1784 1785
1784 1848
1784 1847
1785 1786
1785 1849
1785 1848
1786 1787
1786 1851
1786 1850
1786 1849
1787 1851
1787 1788
1787 1852
1788 1789
1788 1852
1789 1790
1789 1853
1789 1852
1790 1791
1790 1854
1790 1853
1791 1855
1791 1854
1792 1793
1792 1856
1793 1856
1793 1794
1793 1857
1794 1795
1794 1859
1794 1858
1794 1857
1795 1796
1795 1860
1795 1859
1796 1797
1796 1861
1796 1860
1797 1798
1797 1862
1797 1861
1798 1799
1798 1862
1799 1800
1799 1864
1799 1863
1799 1862
1800 1801
1800 1865
1800 1864
1801 1802
1801 1865
1802 1803
1802 1866
1802 1865
1803 1804
1803 1868
1803 1867
1803 1866
1804 1868
1804 1805
1805 1806
1805 1870
1805 1869
1805 1868
1806 1807
1806 1870
1807 1870
1807 1808
1807 1872
1807 1871
1808 1809
1808 1872
1809 1810
1809 1873
1809 1872
1810 1811
1810 1874
1810 1873
1811 1812
1811 1876
1811 1875
1811 1874
1812 1813
1812 1877
1812 1876
1813 1814
1813 1878
1813 1877
1814 1815
1814 1879
1814 1878
1815 1816
1815 1880
1815 1879
1816 1817
1816 1880
1817 1818
1817 1882
1817 1881
1817 1880
1818 1819
1818 1883
1818 1882
1819 1884
1819 1883
1819 1820
1820 1885
1820 1884
1820 1821
1821 1822
1821 1885
1822 1823
1822 1886
1822 1885
1823 1824
1823 1888
1823 1887
1823 1886
1824 1825
1824 1888
1825 1826
1825 1889
1825 1888
1826 1827
1826 1890
1826 1889
1827 1828
1827 1891
1827 1890
1828 1829
1828 1892
1828 1891
1829 1830
1829 1893
1829 1892
1830 1893
1830 1831
1830 1894
1831 1832
1831 1896
1831 1895
1831 1894
1832 1833
1832 1896
1833 1897
1833 1896
1833 1834
1834 1897
1834 1835
1834 1898
1835 1836
1835 1900
1835 1899
1835 1898
1836 1837
1836 1901
1836 1900
1837 1902
1837 1901
1837 1838
1838 1903
1838 1902
1838 1839
1839 1840
1839 1904
1839 1903
1840 1841
1840 1905
1840 1904
1841 1842
1841 1906
1841 1905
1842 1843
1842 1906
1843 1907
1843 1906
1843 1844
1843 1908
1844 1845
1844 1909
1844 1908
1845 1846
1845 1910
1845 1909
1846 1847
1846 1911
1846 1910
1847 1848
1847 1911
1848 1911
1848 1849
1848 1912
1849 1850
1849 1913
1849 1912
1850 1851
1850 1915
1850 1914
1850 1913
1851 1852
1851 1915
1852 1853
1852 1916
1852 1915
1853 1854
1853 1917
1853 1916
1854 1917
1854 1855
1854 1918
1855 1919
1855 1918
1856 1921
1856 1920
1856 1857
1857 1921
1857 1858
1857 1922
1858 1859
1858 1922
1859 1923
1859 1922
1859 1860
1860 1924
1860 1923
1860 1861
1861 1925
1861 1924
1861 1862
1861 1926
1862 1863
1862 1927
1862 1926
1863 1864
1863 1928
1863 1927
1864 1865
1864 1928
1865 1866
1865 1929
1865 1928
1866 1929
1866 1867
1866 1930
1867 1868
1867 1932
1867 1931
1867 1930
1868 1932
1868 1869
1869 1870
1869 1933
1869 1932
1870 1871
1870 1935
1870 1934
1870 1933
1871 1872
1871 1936
1871 1935
1872 1873
1872 1936
1873 1936
1873 1874
1873 1937
1874 1937
1874 1875
1874 1938
1875 1876
1875 1939
1875 1938
1876 1939
1876 1877
1876 1940
1877 1940
1877 1878
1877 1941
1878 1941
1878 1879
1878 1942
1879 1942
1879 1880
1879 1943
1880 1881
1880 1945
1880 1944
1880 1943
1881 1882
1881 1945
1882 1945
1882 1883
1882 1946
1883 1947
1883 1946
1883 1884
1883 1948
1884 1885
1884 1948
1885 1886
1885 1949
1885 1948
1886 1950
1886 1949
1886 1887
1886 1951
1887 1888
1887 1951
1888 1889
1888 1952
1888 1951
1889 1953
1889 1952
1889 1890
1890 1954
1890 1953
1890 1891
1890 1955
1891 1892
1891 1956
1891 1955
1892 1893
1892 1956
1893 1957
1893 1956
1893 1894
1893 1958
1894 1895
1894 1958
1895 1896
1895 1959
1895 1958
1896 1897
1896 1961
1896 1960
1896 1959
1897 1898
1897 1962
1897 1961
1898 1899
1898 1963
1898 1962
1899 1900
1899 1964
1899 1963
1900 1901
1900 1964
1901 1965
1901 1964
1901 1902
1902 1966
1902 1965
1902 1903
1903 1966
1903 1904
1903 1967
1904 1968
1904 1967
1904 1905
1904 1969
1905 1906
1905 1970
1905 1969
1906 1907
1906 1971
1906 1970
1907 1908
1907 1971
1908 1972
1908 1971
1908 1909
1908 1973
1909 1974
1909 1973
1909 1910
1910 1975
1910 1974
1910 1911
1911 1912
1911 1975
1912 1913
1912 1977
1912 1976
1912 1975
1913 1914
1913 1978
1913 1977
1914 1915
1914 1978
1915 1916
1915 1979
1915 1978
1916 1917
1916 1980
1916 1979
1917 1918
1917 1981
1917 1980
1918 1981
1918 1919
1918 1982
1919 1983
1919 1982
1920 1921
1920 1984
1921 1922
1921 1986
1921 1985
1921 1984
1922 1923
1922 1986
1923 1924
1923 1988
1923 1987
1923 1986
1924 1925
1924 1988
1925 1926
1925 1990
1925 1989
1925 1988
1926 1927
1926 1990
1927 1928
1927 1991
1927 1990
1928 1991
1928 1929
1928 1992
1929 1930
1929 1994
1929 1993
1929 1992
1930 1931
1930 1995
1930 1994
1931 1932
1931 1995
1932 1933
1932 1996
1932 1995
1933 1934
1933 1997
1933 1996
1934 1935
1934 1998
1934 1997
1935 1936
1935 1999
1935 1998
1936 1999
1936 1937
1936 2000
1937 1938
1937 2002
1937 2001
1937 2000
1938 1939
1938 2003
1938 2002
1939 1940
1939 2004
1939 2003
1940 1941
1940 2005
1940 2004
1941 1942
1941 2005
1942 1943
1942 2007
1942 2006
1942 2005
1943 1944
1943 2007
1944 1945
1944 2008
1944 2007
1945 1946
1945 2009
1945 2008
1946 1947
1946 2011
1946 2010
1946 2009
1947 1948
1947 2011
1948 2012
1948 2011
1948 1949
1948 2013
1949 1950
1949 2013
1950 1951
1950 2015
1950 2014
1950 2013
1951 1952
1951 2015
1952 1953
1952 2017
1952 2016
1952 2015
1953 1954
1953 2018
1953 2017
1954 1955
1954 2019
1954 2018
1955 1956
1955 2020
1955 2019
1956 2020
1956 1957
1956 2021
1957 1958
1957 2022
1957 2021
1958 1959
1958 2022
1959 1960
1959 2024
1959 2023
1959 2022
1960 1961
1960 2025
1960 2024
1961 1962
1961 2025
1962 1963
1962 2026
1962 2025
1963 1964
1963 2027
1963 2026
1964 2028
1964 2027
1964 1965
1964 2029
1965 1966
1965 2030
1965 2029
1966 1967
1966 2031
1966 2030
1967 1968
1967 2032
1967 2031
1968 1969
1968 2033
1968 2032
1969 1970
1969 2033
1970 1971
1970 2035
1970 2034
1970 2033
1971 2035
1971 1972
1971 2036
1972 1973
1972 2037
1972 2036
1973 1974
1973 2037
1974 1975
1974 2038
1974 2037
1975 1976
1975 2039
1975 2038
1976 1977
1976 2040
1976 2039
1977 1978
1977 2041
1977 2040
1978 2042
1978 2041
1978 1979
1978 2043
1979 1980
1979 2044
1979 2043
1980 1981
1980 2045
1980 2044
1981 2045
1981 1982
1982 1983
1982 2047
1982 2046
1982 2045
1983 2047
1984 1985
1985 1986
1986 1987
1987 1988
1988 1989
1989 1990
1990 1991
1991 1992
1992 1993
1993 1994
1994 1995
1995 1996
1996 1997
1997 1998
1998 1999
1999 2000
2000 2001
2001 2002
2002 2003
2003 2004
2004 2005
2005 2006
2006 2007
2007 2008
2008 2009
2009 2010
2010 2011
2011 2012
2012 2013
2013 2014
2014 2015
2015 2016
2016 2017
2017 2018
2018 2019
2019 2020
2020 2021
2021 2022
2022 2023
2023 2024
2024 2025
2025 2026
2026 2027
2027 2028
2028 2029
2029 2030
2030 2031
2031 2032
2032 2033
2033 2034
2034 2035
2035 2036
2036 2037
2037 2038
2038 2039
2039 2040
2040 2041
2041 2042
2042 2043
2043 2044
2044 2045
2045 2046
2046 2047
